NAME : rnd22_50.tsp.tsp.optbc.tour
TYPE : TOUR
DIMENSION : 50
TOUR_SECTION
1
33
24
9
11
6
3
28
27
32
43
15
22
23
47
40
26
8
20
36
45
48
18
37
19
42
10
5
4
46
31
21
14
25
2
34
17
12
29
39
38
16
44
41
35
7
50
30
49
13
-1